# Solution for model GNN
# Objective value = 1.3965897090178729e+00
feat_vec[0,0] 0
feat_vec[0,1] 0
feat_vec[0,2] 1
feat_vec[0,3] 1
feat_vec[0,4] 0
feat_vec[0,5] 0
feat_vec[0,6] 0
feat_vec[0,7] 0
feat_vec[0,8] 0
feat_vec[0,9] 0
feat_vec[0,10] 0
feat_vec[0,11] 0
feat_vec[0,12] 0
feat_vec[0,13] 1
feat_vec[0,14] 1
feat_vec[0,15] 1
feat_vec[0,16] 0
feat_vec[0,17] 0
feat_vec[0,18] 1
feat_vec[0,19] 0
feat_vec[0,20] 0
feat_vec[1,0] 0
feat_vec[1,1] 1
feat_vec[1,2] 0
feat_vec[1,3] 0
feat_vec[1,4] 0
feat_vec[1,5] 0
feat_vec[1,6] 0
feat_vec[1,7] 0
feat_vec[1,8] 1
feat_vec[1,9] 0
feat_vec[1,10] 0
feat_vec[1,11] 0
feat_vec[1,12] 0
feat_vec[1,13] 0
feat_vec[1,14] 0
feat_vec[1,15] 0
feat_vec[1,16] 0
feat_vec[1,17] 0
feat_vec[1,18] 1
feat_vec[1,19] 0
feat_vec[1,20] 0
feat_vec[2,0] 0
feat_vec[2,1] 0
feat_vec[2,2] 1
feat_vec[2,3] 1
feat_vec[2,4] 0
feat_vec[2,5] 0
feat_vec[2,6] 0
feat_vec[2,7] 0
feat_vec[2,8] 1
feat_vec[2,9] 0
feat_vec[2,10] 1
feat_vec[2,11] 1
feat_vec[2,12] 0
feat_vec[2,13] 1
feat_vec[2,14] 1
feat_vec[2,15] 1
feat_vec[2,16] 1
feat_vec[2,17] 0
feat_vec[2,18] 1
feat_vec[2,19] 0
feat_vec[2,20] 0
feat_vec[3,0] 0
feat_vec[3,1] 1
feat_vec[3,2] 0
feat_vec[3,3] 0
feat_vec[3,4] 0
feat_vec[3,5] 0
feat_vec[3,6] 0
feat_vec[3,7] 0
feat_vec[3,8] 0
feat_vec[3,9] 0
feat_vec[3,10] 0
feat_vec[3,11] 1
feat_vec[3,12] 0
feat_vec[3,13] 0
feat_vec[3,14] 1
feat_vec[3,15] 1
feat_vec[3,16] 0
feat_vec[3,17] 0
feat_vec[3,18] 1
feat_vec[3,19] 0
feat_vec[3,20] 0
A[0,0] 1
A[0,1] 0
A[0,2] 1
A[0,3] 1
A[1,0] 0
A[1,1] 1
A[1,2] 1
A[1,3] 1
A[2,0] 1
A[2,1] 1
A[2,2] 1
A[2,3] 0
A[3,0] 1
A[3,1] 1
A[3,2] 0
A[3,3] 1
x[0,0] 0
x[0,1] 0
x[0,2] 1
x[0,3] 0
x[0,4] 0
x[0,5] 0
x[0,6] 0
x[0,7] 0
x[0,8] 0
x[0,9] 0
x[0,10] 1
x[0,11] 0
x[0,12] 1
x[0,13] 0
x[0,14] 0
x[0,15] 0
x[0,16] 0
x[0,17] 0
x[0,18] 0
x[0,19] 0
x[0,20] 1
x[1,0] 0
x[1,1] 0
x[1,2] 1
x[1,3] 0
x[1,4] 0
x[1,5] 0
x[1,6] 0
x[1,7] 0
x[1,8] 0
x[1,9] 0
x[1,10] 1
x[1,11] 0
x[1,12] 1
x[1,13] 0
x[1,14] 0
x[1,15] 0
x[1,16] 0
x[1,17] 0
x[1,18] 0
x[1,19] 0
x[1,20] 1
x[2,0] 0
x[2,1] 0
x[2,2] 1
x[2,3] 0
x[2,4] 0
x[2,5] 0
x[2,6] 0
x[2,7] 0
x[2,8] 0
x[2,9] 0
x[2,10] 1
x[2,11] 0
x[2,12] 0
x[2,13] 0
x[2,14] 0
x[2,15] 1
x[2,16] 0
x[2,17] 0
x[2,18] 0
x[2,19] 0
x[2,20] 1
x[3,0] 0
x[3,1] 0
x[3,2] 1
x[3,3] 0
x[3,4] 0
x[3,5] 0
x[3,6] 0
x[3,7] 0
x[3,8] 0
x[3,9] 0
x[3,10] 1
x[3,11] 0
x[3,12] 0
x[3,13] 0
x[3,14] 0
x[3,15] 1
x[3,16] 0
x[3,17] 0
x[3,18] 0
x[3,19] 0
x[3,20] 1
c[0,0,0] 0
c[0,0,1] 0
c[0,0,2] 0
c[0,0,3] 0
c[0,0,4] 0
c[0,0,5] 0
c[0,0,6] 0
c[0,0,7] 0
c[0,0,8] 0
c[0,0,9] 0
c[0,0,10] 0
c[0,0,11] 0
c[0,0,12] 0
c[0,0,13] 0
c[0,0,14] 0
c[0,0,15] 0
c[0,0,16] 0
c[0,0,17] 0
c[0,0,18] 1
c[0,0,19] 0
c[0,0,20] 0
c[0,0,21] 0
c[0,0,22] 0
c[0,0,23] 0
c[0,0,24] 0
c[0,1,0] 0
c[0,1,1] 0
c[0,1,2] 0
c[0,1,3] 0
c[0,1,4] 0
c[0,1,5] 0
c[0,1,6] 0
c[0,1,7] 0
c[0,1,8] 0
c[0,1,9] 0
c[0,1,10] 0
c[0,1,11] 0
c[0,1,12] 0
c[0,1,13] 0
c[0,1,14] 0
c[0,1,15] 0
c[0,1,16] 0
c[0,1,17] 0
c[0,1,18] 1
c[0,1,19] 0
c[0,1,20] 0
c[0,1,21] 0
c[0,1,22] 0
c[0,1,23] 0
c[0,1,24] 0
c[0,2,0] 0
c[0,2,1] 0
c[0,2,2] 0
c[0,2,3] 0
c[0,2,4] 0
c[0,2,5] 0
c[0,2,6] 0
c[0,2,7] 0
c[0,2,8] 0
c[0,2,9] 0
c[0,2,10] 0
c[0,2,11] 0
c[0,2,12] 0
c[0,2,13] 0
c[0,2,14] 0
c[0,2,15] 0
c[0,2,16] 0
c[0,2,17] 0
c[0,2,18] 1
c[0,2,19] 0
c[0,2,20] 0
c[0,2,21] 0
c[0,2,22] 0
c[0,2,23] 0
c[0,2,24] 0
c[0,3,0] 0
c[0,3,1] 0
c[0,3,2] 0
c[0,3,3] 0
c[0,3,4] 0
c[0,3,5] 0
c[0,3,6] 0
c[0,3,7] 0
c[0,3,8] 0
c[0,3,9] 0
c[0,3,10] 0
c[0,3,11] 0
c[0,3,12] 0
c[0,3,13] 0
c[0,3,14] 0
c[0,3,15] 0
c[0,3,16] 0
c[0,3,17] 0
c[0,3,18] 1
c[0,3,19] 0
c[0,3,20] 0
c[0,3,21] 0
c[0,3,22] 0
c[0,3,23] 0
c[0,3,24] 0
c[1,0,0] 0
c[1,0,1] 0
c[1,0,2] 0
c[1,0,3] 0
c[1,0,4] 0
c[1,0,5] 0
c[1,0,6] 0
c[1,0,7] 0
c[1,0,8] 0
c[1,0,9] 0
c[1,0,10] 0
c[1,0,11] 0
c[1,0,12] 0
c[1,0,13] 0
c[1,0,14] 0
c[1,0,15] 0
c[1,0,16] 0
c[1,0,17] 0
c[1,0,18] 1
c[1,0,19] 0
c[1,0,20] 0
c[1,0,21] 0
c[1,0,22] 0
c[1,0,23] 0
c[1,0,24] 0
c[1,1,0] 0
c[1,1,1] 0
c[1,1,2] 0
c[1,1,3] 0
c[1,1,4] 0
c[1,1,5] 0
c[1,1,6] 0
c[1,1,7] 0
c[1,1,8] 0
c[1,1,9] 0
c[1,1,10] 0
c[1,1,11] 0
c[1,1,12] 0
c[1,1,13] 0
c[1,1,14] 0
c[1,1,15] 0
c[1,1,16] 0
c[1,1,17] 0
c[1,1,18] 1
c[1,1,19] 0
c[1,1,20] 0
c[1,1,21] 0
c[1,1,22] 0
c[1,1,23] 0
c[1,1,24] 0
c[1,2,0] 0
c[1,2,1] 0
c[1,2,2] 0
c[1,2,3] 0
c[1,2,4] 0
c[1,2,5] 0
c[1,2,6] 0
c[1,2,7] 0
c[1,2,8] 0
c[1,2,9] 0
c[1,2,10] 0
c[1,2,11] 0
c[1,2,12] 0
c[1,2,13] 0
c[1,2,14] 0
c[1,2,15] 0
c[1,2,16] 0
c[1,2,17] 0
c[1,2,18] 1
c[1,2,19] 0
c[1,2,20] 0
c[1,2,21] 0
c[1,2,22] 0
c[1,2,23] 0
c[1,2,24] 0
c[1,3,0] 0
c[1,3,1] 0
c[1,3,2] 0
c[1,3,3] 0
c[1,3,4] 0
c[1,3,5] 0
c[1,3,6] 0
c[1,3,7] 0
c[1,3,8] 0
c[1,3,9] 0
c[1,3,10] 0
c[1,3,11] 0
c[1,3,12] 0
c[1,3,13] 0
c[1,3,14] 0
c[1,3,15] 0
c[1,3,16] 0
c[1,3,17] 0
c[1,3,18] 1
c[1,3,19] 0
c[1,3,20] 0
c[1,3,21] 0
c[1,3,22] 0
c[1,3,23] 0
c[1,3,24] 0
c[2,0,0] 0
c[2,0,1] 0
c[2,0,2] 0
c[2,0,3] 0
c[2,0,4] 0
c[2,0,5] 0
c[2,0,6] 0
c[2,0,7] 0
c[2,0,8] 0
c[2,0,9] 0
c[2,0,10] 0
c[2,0,11] 0
c[2,0,12] 0
c[2,0,13] 0
c[2,0,14] 0
c[2,0,15] 0
c[2,0,16] 0
c[2,0,17] 0
c[2,0,18] 1
c[2,0,19] 0
c[2,0,20] 0
c[2,0,21] 0
c[2,0,22] 0
c[2,0,23] 0
c[2,0,24] 0
c[2,1,0] 0
c[2,1,1] 0
c[2,1,2] 0
c[2,1,3] 0
c[2,1,4] 0
c[2,1,5] 0
c[2,1,6] 0
c[2,1,7] 0
c[2,1,8] 0
c[2,1,9] 0
c[2,1,10] 0
c[2,1,11] 0
c[2,1,12] 0
c[2,1,13] 0
c[2,1,14] 0
c[2,1,15] 0
c[2,1,16] 0
c[2,1,17] 0
c[2,1,18] 1
c[2,1,19] 0
c[2,1,20] 0
c[2,1,21] 0
c[2,1,22] 0
c[2,1,23] 0
c[2,1,24] 0
c[2,2,0] 0
c[2,2,1] 0
c[2,2,2] 0
c[2,2,3] 0
c[2,2,4] 0
c[2,2,5] 0
c[2,2,6] 0
c[2,2,7] 0
c[2,2,8] 0
c[2,2,9] 0
c[2,2,10] 0
c[2,2,11] 0
c[2,2,12] 0
c[2,2,13] 0
c[2,2,14] 0
c[2,2,15] 0
c[2,2,16] 0
c[2,2,17] 0
c[2,2,18] 1
c[2,2,19] 0
c[2,2,20] 0
c[2,2,21] 0
c[2,2,22] 0
c[2,2,23] 0
c[2,2,24] 0
c[2,3,0] 0
c[2,3,1] 0
c[2,3,2] 0
c[2,3,3] 0
c[2,3,4] 0
c[2,3,5] 0
c[2,3,6] 0
c[2,3,7] 0
c[2,3,8] 0
c[2,3,9] 0
c[2,3,10] 0
c[2,3,11] 0
c[2,3,12] 0
c[2,3,13] 0
c[2,3,14] 0
c[2,3,15] 0
c[2,3,16] 0
c[2,3,17] 0
c[2,3,18] 1
c[2,3,19] 0
c[2,3,20] 0
c[2,3,21] 0
c[2,3,22] 0
c[2,3,23] 0
c[2,3,24] 0
c[3,0,0] 0
c[3,0,1] 0
c[3,0,2] 0
c[3,0,3] 0
c[3,0,4] 0
c[3,0,5] 0
c[3,0,6] 0
c[3,0,7] 0
c[3,0,8] 0
c[3,0,9] 0
c[3,0,10] 0
c[3,0,11] 0
c[3,0,12] 0
c[3,0,13] 0
c[3,0,14] 0
c[3,0,15] 0
c[3,0,16] 0
c[3,0,17] 0
c[3,0,18] 1
c[3,0,19] 0
c[3,0,20] 0
c[3,0,21] 0
c[3,0,22] 0
c[3,0,23] 0
c[3,0,24] 0
c[3,1,0] 0
c[3,1,1] 0
c[3,1,2] 0
c[3,1,3] 0
c[3,1,4] 0
c[3,1,5] 0
c[3,1,6] 0
c[3,1,7] 0
c[3,1,8] 0
c[3,1,9] 0
c[3,1,10] 0
c[3,1,11] 0
c[3,1,12] 0
c[3,1,13] 0
c[3,1,14] 0
c[3,1,15] 0
c[3,1,16] 0
c[3,1,17] 0
c[3,1,18] 1
c[3,1,19] 0
c[3,1,20] 0
c[3,1,21] 0
c[3,1,22] 0
c[3,1,23] 0
c[3,1,24] 0
c[3,2,0] 0
c[3,2,1] 0
c[3,2,2] 0
c[3,2,3] 0
c[3,2,4] 0
c[3,2,5] 0
c[3,2,6] 0
c[3,2,7] 0
c[3,2,8] 0
c[3,2,9] 0
c[3,2,10] 0
c[3,2,11] 0
c[3,2,12] 0
c[3,2,13] 0
c[3,2,14] 0
c[3,2,15] 0
c[3,2,16] 0
c[3,2,17] 0
c[3,2,18] 1
c[3,2,19] 0
c[3,2,20] 0
c[3,2,21] 0
c[3,2,22] 0
c[3,2,23] 0
c[3,2,24] 0
c[3,3,0] 0
c[3,3,1] 0
c[3,3,2] 0
c[3,3,3] 0
c[3,3,4] 0
c[3,3,5] 0
c[3,3,6] 0
c[3,3,7] 0
c[3,3,8] 0
c[3,3,9] 0
c[3,3,10] 0
c[3,3,11] 0
c[3,3,12] 0
c[3,3,13] 0
c[3,3,14] 0
c[3,3,15] 0
c[3,3,16] 0
c[3,3,17] 0
c[3,3,18] 1
c[3,3,19] 0
c[3,3,20] 0
c[3,3,21] 0
c[3,3,22] 0
c[3,3,23] 0
c[3,3,24] 0
b[0,0,0] 0
b[0,0,1] 0
b[0,0,2] 0
b[0,0,3] 0
b[0,0,4] 0
b[0,0,5] 0
b[0,0,6] 0
b[0,0,7] 0
b[0,0,8] 0
b[0,0,9] 0
b[0,0,10] 0
b[0,0,11] 0
b[0,0,12] 0
b[0,0,13] 0
b[0,0,14] 0
b[0,0,15] 0
b[0,0,16] 0
b[0,0,17] 0
b[0,0,18] 0
b[0,0,19] 0
b[0,0,20] 0
b[0,1,0] 0
b[0,1,1] 0
b[0,1,2] 0
b[0,1,3] 0
b[0,1,4] 0
b[0,1,5] 0
b[0,1,6] 0
b[0,1,7] 0
b[0,1,8] 0
b[0,1,9] 0
b[0,1,10] 0
b[0,1,11] 0
b[0,1,12] 0
b[0,1,13] 0
b[0,1,14] 0
b[0,1,15] 0
b[0,1,16] 0
b[0,1,17] 0
b[0,1,18] 0
b[0,1,19] 0
b[0,1,20] 0
b[0,2,0] 0
b[0,2,1] 0
b[0,2,2] 0
b[0,2,3] 0
b[0,2,4] 0
b[0,2,5] 0
b[0,2,6] 0
b[0,2,7] 0
b[0,2,8] 0
b[0,2,9] 0
b[0,2,10] 0
b[0,2,11] 0
b[0,2,12] 0
b[0,2,13] 0
b[0,2,14] 0
b[0,2,15] 0
b[0,2,16] 0
b[0,2,17] 0
b[0,2,18] 0
b[0,2,19] 0
b[0,2,20] 0
b[0,3,0] 0
b[0,3,1] 0
b[0,3,2] 0
b[0,3,3] 0
b[0,3,4] 0
b[0,3,5] 0
b[0,3,6] 0
b[0,3,7] 0
b[0,3,8] 0
b[0,3,9] 0
b[0,3,10] 0
b[0,3,11] 0
b[0,3,12] 0
b[0,3,13] 0
b[0,3,14] 0
b[0,3,15] 0
b[0,3,16] 0
b[0,3,17] 0
b[0,3,18] 0
b[0,3,19] 0
b[0,3,20] 0
b[1,0,0] 0
b[1,0,1] 0
b[1,0,2] 0
b[1,0,3] 0
b[1,0,4] 0
b[1,0,5] 0
b[1,0,6] 0
b[1,0,7] 0
b[1,0,8] 0
b[1,0,9] 0
b[1,0,10] 0
b[1,0,11] 0
b[1,0,12] 0
b[1,0,13] 0
b[1,0,14] 0
b[1,0,15] 0
b[1,0,16] 0
b[1,0,17] 0
b[1,0,18] 0
b[1,0,19] 0
b[1,0,20] 0
b[1,1,0] 0
b[1,1,1] 0
b[1,1,2] 0
b[1,1,3] 0
b[1,1,4] 0
b[1,1,5] 0
b[1,1,6] 0
b[1,1,7] 0
b[1,1,8] 0
b[1,1,9] 0
b[1,1,10] 0
b[1,1,11] 0
b[1,1,12] 0
b[1,1,13] 0
b[1,1,14] 0
b[1,1,15] 0
b[1,1,16] 0
b[1,1,17] 0
b[1,1,18] 0
b[1,1,19] 0
b[1,1,20] 0
b[1,2,0] 0
b[1,2,1] 0
b[1,2,2] 0
b[1,2,3] 0
b[1,2,4] 0
b[1,2,5] 0
b[1,2,6] 0
b[1,2,7] 0
b[1,2,8] 0
b[1,2,9] 0
b[1,2,10] 0
b[1,2,11] 0
b[1,2,12] 0
b[1,2,13] 0
b[1,2,14] 0
b[1,2,15] 0
b[1,2,16] 0
b[1,2,17] 0
b[1,2,18] 0
b[1,2,19] 0
b[1,2,20] 0
b[1,3,0] 0
b[1,3,1] 0
b[1,3,2] 0
b[1,3,3] 0
b[1,3,4] 0
b[1,3,5] 0
b[1,3,6] 0
b[1,3,7] 0
b[1,3,8] 0
b[1,3,9] 0
b[1,3,10] 0
b[1,3,11] 0
b[1,3,12] 0
b[1,3,13] 0
b[1,3,14] 0
b[1,3,15] 0
b[1,3,16] 0
b[1,3,17] 0
b[1,3,18] 0
b[1,3,19] 0
b[1,3,20] 0
b[2,0,0] 0
b[2,0,1] 0
b[2,0,2] 0
b[2,0,3] 0
b[2,0,4] 0
b[2,0,5] 0
b[2,0,6] 0
b[2,0,7] 0
b[2,0,8] 0
b[2,0,9] 0
b[2,0,10] 0
b[2,0,11] 0
b[2,0,12] 0
b[2,0,13] 0
b[2,0,14] 0
b[2,0,15] 0
b[2,0,16] 0
b[2,0,17] 0
b[2,0,18] 0
b[2,0,19] 0
b[2,0,20] 0
b[2,1,0] 0
b[2,1,1] 0
b[2,1,2] 0
b[2,1,3] 0
b[2,1,4] 0
b[2,1,5] 0
b[2,1,6] 0
b[2,1,7] 0
b[2,1,8] 0
b[2,1,9] 0
b[2,1,10] 0
b[2,1,11] 0
b[2,1,12] 0
b[2,1,13] 0
b[2,1,14] 0
b[2,1,15] 0
b[2,1,16] 0
b[2,1,17] 0
b[2,1,18] 0
b[2,1,19] 0
b[2,1,20] 0
b[2,2,0] 0
b[2,2,1] 0
b[2,2,2] 0
b[2,2,3] 0
b[2,2,4] 0
b[2,2,5] 0
b[2,2,6] 0
b[2,2,7] 0
b[2,2,8] 0
b[2,2,9] 0
b[2,2,10] 0
b[2,2,11] 0
b[2,2,12] 0
b[2,2,13] 0
b[2,2,14] 0
b[2,2,15] 0
b[2,2,16] 0
b[2,2,17] 0
b[2,2,18] 0
b[2,2,19] 0
b[2,2,20] 0
b[2,3,0] 0
b[2,3,1] 0
b[2,3,2] 0
b[2,3,3] 0
b[2,3,4] 0
b[2,3,5] 0
b[2,3,6] 0
b[2,3,7] 0
b[2,3,8] 0
b[2,3,9] 0
b[2,3,10] 0
b[2,3,11] 0
b[2,3,12] 0
b[2,3,13] 0
b[2,3,14] 0
b[2,3,15] 0
b[2,3,16] 0
b[2,3,17] 0
b[2,3,18] 0
b[2,3,19] 0
b[2,3,20] 0
b[3,0,0] 0
b[3,0,1] 0
b[3,0,2] 0
b[3,0,3] 0
b[3,0,4] 0
b[3,0,5] 0
b[3,0,6] 0
b[3,0,7] 0
b[3,0,8] 0
b[3,0,9] 0
b[3,0,10] 0
b[3,0,11] 0
b[3,0,12] 0
b[3,0,13] 0
b[3,0,14] 0
b[3,0,15] 0
b[3,0,16] 0
b[3,0,17] 0
b[3,0,18] 0
b[3,0,19] 0
b[3,0,20] 0
b[3,1,0] 0
b[3,1,1] 0
b[3,1,2] 0
b[3,1,3] 0
b[3,1,4] 0
b[3,1,5] 0
b[3,1,6] 0
b[3,1,7] 0
b[3,1,8] 0
b[3,1,9] 0
b[3,1,10] 0
b[3,1,11] 0
b[3,1,12] 0
b[3,1,13] 0
b[3,1,14] 0
b[3,1,15] 0
b[3,1,16] 0
b[3,1,17] 0
b[3,1,18] 0
b[3,1,19] 0
b[3,1,20] 0
b[3,2,0] 0
b[3,2,1] 0
b[3,2,2] 0
b[3,2,3] 0
b[3,2,4] 0
b[3,2,5] 0
b[3,2,6] 0
b[3,2,7] 0
b[3,2,8] 0
b[3,2,9] 0
b[3,2,10] 0
b[3,2,11] 0
b[3,2,12] 0
b[3,2,13] 0
b[3,2,14] 0
b[3,2,15] 0
b[3,2,16] 0
b[3,2,17] 0
b[3,2,18] 0
b[3,2,19] 0
b[3,2,20] 0
b[3,3,0] 0
b[3,3,1] 0
b[3,3,2] 0
b[3,3,3] 0
b[3,3,4] 0
b[3,3,5] 0
b[3,3,6] 0
b[3,3,7] 0
b[3,3,8] 0
b[3,3,9] 0
b[3,3,10] 0
b[3,3,11] 0
b[3,3,12] 0
b[3,3,13] 0
b[3,3,14] 0
b[3,3,15] 0
b[3,3,16] 0
b[3,3,17] 0
b[3,3,18] 0
b[3,3,19] 0
b[3,3,20] 0
sp[0,0] 3.3333333333333348e-01
sp[0,1] 3.3333333333333337e-01
sp[0,2] 3.3333333333333337e-01
sp[0,3] 3.3333333333333337e-01
sp[1,0] 3.3333333333333337e-01
sp[1,1] 3.3333333333333348e-01
sp[1,2] 3.3333333333333337e-01
sp[1,3] 3.3333333333333337e-01
sp[2,0] 3.3333333333333337e-01
sp[2,1] 3.3333333333333337e-01
sp[2,2] 3.3333333333333331e-01
sp[2,3] 3.3333333333333337e-01
sp[3,0] 3.3333333333333337e-01
sp[3,1] 3.3333333333333337e-01
sp[3,2] 3.3333333333333337e-01
sp[3,3] 3.3333333333333331e-01
d_plus[0] 3
d_plus[1] 3
d_plus[2] 3
d_plus[3] 3
p[0,0] 18
p[0,1] 18
p[0,2] 18
p[0,3] 18
p[1,0] 18
p[1,1] 18
p[1,2] 18
p[1,3] 18
p[2,0] 18
p[2,1] 18
p[2,2] 18
p[2,3] 18
p[3,0] 18
p[3,1] 18
p[3,2] 18
p[3,3] 18
t[0,0] 3.3333333333333348e-01
t[0,1] 0
t[0,2] 0.333333333333318
t[0,3] 3.3333333333333892e-01
t[1,0] 0
t[1,1] 3.3333333333333348e-01
t[1,2] 3.3333333333342441e-01
t[1,3] 3.3333333333347281e-01
t[2,0] 3.3333333333333914e-01
t[2,1] 3.3333333333333914e-01
t[2,2] 3.3333333333333331e-01
t[2,3] 0
t[3,0] 3.3333333333338933e-01
t[3,1] 3.3333333333333487e-01
t[3,2] 0
t[3,3] 3.3333333333331971e-01
h_prime[0,0] 0
h_prime[0,1] 3.3060430238445571e-02
h_prime[0,2] 0
h_prime[0,3] 0
h_prime[0,4] 3.0024101259176872e-01
h_prime[0,5] 0
h_prime[0,6] 5.3107518382944363e-13
h_prime[0,7] 1.4777068457760834e-13
h_prime[0,8] 2.1259621034082521e-01
h_prime[0,9] 1.9407977163816886e-01
h_prime[0,10] 0
h_prime[0,11] 0
h_prime[0,12] 1.3531127125029987e+00
h_prime[0,13] 0
h_prime[0,14] 0
h_prime[0,15] 0
h_prime[0,16] 1.4303422222631479e-02
h_prime[0,17] 1.9636787473747974e-03
h_prime[0,18] 0
h_prime[0,19] 0
h_prime[0,20] 0
h_prime[0,21] 1.2763048460061732e-01
h_prime[0,22] 0.214071318817977
h_prime[0,23] 0
h_prime[0,24] 5.0361562039055108e-01
h_prime[0,25] 0
h_prime[0,26] 3.7769213319150730e-02
h_prime[0,27] 0
h_prime[0,28] 7.3976735056666065e-01
h_prime[0,29] 5.2346179882461819e-02
h_prime[0,30] 0
h_prime[0,31] 0
h_prime[1,0] 0
h_prime[1,1] 1.8367716421670988e-01
h_prime[1,2] 0
h_prime[1,3] 0
h_prime[1,4] 5.7235072973638168e-04
h_prime[1,5] 0
h_prime[1,6] 1.8028814593979459e-01
h_prime[1,7] 1.6276141131938718e-01
h_prime[1,8] 3.1418672452352425e-01
h_prime[1,9] 2.2788205494503996e-01
h_prime[1,10] 3.4226656619608331e-02
h_prime[1,11] 0
h_prime[1,12] 1.0331832418844833e+00
h_prime[1,13] 0
h_prime[1,14] 0
h_prime[1,15] 0
h_prime[1,16] 3.0350091556832218e-02
h_prime[1,17] 2.3737990111125959e-01
h_prime[1,18] 0
h_prime[1,19] 7.9002397134732227e-02
h_prime[1,20] 0
h_prime[1,21] 0
h_prime[1,22] 2.6772483873082915e-02
h_prime[1,23] 0
h_prime[1,24] 5.4325798223732225e-01
h_prime[1,25] 0
h_prime[1,26] 2.6688093940434182e-01
h_prime[1,27] 0
h_prime[1,28] 5.6720084293441830e-01
h_prime[1,29] 0
h_prime[1,30] 0
h_prime[1,31] 0
h_prime[2,0] 0
h_prime[2,1] 0
h_prime[2,2] 0
h_prime[2,3] 0
h_prime[2,4] 2.8720600825436726e-01
h_prime[2,5] 0
h_prime[2,6] 4.7621950507001465e-02
h_prime[2,7] 6.1608442415631792e-02
h_prime[2,8] 3.3403191963815149e-01
h_prime[2,9] 3.4179285168746069e-02
h_prime[2,10] 5.9469965014814719e-02
h_prime[2,11] 0
h_prime[2,12] 1.1087655325732548e+00
h_prime[2,13] 0
h_prime[2,14] 0
h_prime[2,15] 0
h_prime[2,16] 1.1303026974211616e-01
h_prime[2,17] 0
h_prime[2,18] 0
h_prime[2,19] 0
h_prime[2,20] 0
h_prime[2,21] 1.1084261039874832e-01
h_prime[2,22] 1.0169354360563759e-01
h_prime[2,23] 0
h_prime[2,24] 4.0150908892965081e-01
h_prime[2,25] 0
h_prime[2,26] 1.2440431118022512e-01
h_prime[2,27] 0
h_prime[2,28] 6.4596719139557446e-01
h_prime[2,29] 0
h_prime[2,30] 0
h_prime[2,31] 0
h_prime[3,0] 0
h_prime[3,1] 8.0167129635642168e-02
h_prime[3,2] 0
h_prime[3,3] 0
h_prime[3,4] 0
h_prime[3,5] 0
h_prime[3,6] 8.7063560883031244e-02
h_prime[3,7] 2.2140011812254123e-01
h_prime[3,8] 4.2558043450102911e-01
h_prime[3,9] 1.9619626055170353e-01
h_prime[3,10] 0
h_prime[3,11] 0
h_prime[3,12] 7.9077899456040468e-01
h_prime[3,13] 0
h_prime[3,14] 0
h_prime[3,15] 0
h_prime[3,16] 0
h_prime[3,17] 3.1372408444696842e-01
h_prime[3,18] 0
h_prime[3,19] 0
h_prime[3,20] 0
h_prime[3,21] 0
h_prime[3,22] 3.7309005856670290e-02
h_prime[3,23] 0
h_prime[3,24] 4.3016363253507239e-01
h_prime[3,25] 0
h_prime[3,26] 2.0004028578609689e-01
h_prime[3,27] 0
h_prime[3,28] 6.1002337063349010e-01
h_prime[3,29] 0
h_prime[3,30] 0
h_prime[3,31] 0
x_0_0_0_100 0
s_0_0_0_100 4.7774766385571066e-01
z_0_0_0_100 0
x_0_0_1_100 0
s_0_0_1_100 0
z_0_0_1_100 1
x_0_0_2_100 0
s_0_0_2_100 3.9188203215597722e-01
z_0_0_2_100 0
x_0_0_3_100 0
s_0_0_3_100 3.2590760438091593e-01
z_0_0_3_100 0
x_0_0_4_100 0
s_0_0_4_100 0
z_0_0_4_100 1
x_0_0_5_100 0
s_0_0_5_100 4.9093319972341554e-01
z_0_0_5_100 0
x_0_0_6_100 0
s_0_0_6_100 4.1197737032172554e-04
z_0_0_6_100 0
x_0_0_7_100 0
s_0_0_7_100 2.2700770445691631e-03
z_0_0_7_100 0
x_0_0_8_100 0
s_0_0_8_100 0
z_0_0_8_100 1
x_0_0_9_100 0
s_0_0_9_100 0
z_0_0_9_100 1
x_0_0_10_100 0
s_0_0_10_100 0.0998979505189022
z_0_0_10_100 0
x_0_0_11_100 0
s_0_0_11_100 1.8224729100851644e-01
z_0_0_11_100 0
x_0_0_12_100 0
s_0_0_12_100 0
z_0_0_12_100 1
x_0_0_13_100 0
s_0_0_13_100 1.7514320556090363e-01
z_0_0_13_100 0
x_0_0_14_100 0
s_0_0_14_100 4.5288891593601888e-01
z_0_0_14_100 0
x_0_0_15_100 0
s_0_0_15_100 7.5315623854622071e-01
z_0_0_15_100 0
x_0_0_16_100 0
s_0_0_16_100 0
z_0_0_16_100 1
x_0_0_17_100 0
s_0_0_17_100 0
z_0_0_17_100 1
x_0_0_18_100 0
s_0_0_18_100 1.9739213089166224e-01
z_0_0_18_100 0
x_0_0_19_100 0
s_0_0_19_100 1.9359268279109262e-01
z_0_0_19_100 0
x_0_0_20_100 0
s_0_0_20_100 1.3661356460445090e-01
z_0_0_20_100 0
x_0_0_21_100 0
s_0_0_21_100 0
z_0_0_21_100 1
x_0_0_22_100 0
s_0_0_22_100 0
z_0_0_22_100 1
x_0_0_23_100 0
s_0_0_23_100 9.3552660134950039e-01
z_0_0_23_100 0
x_0_0_24_100 0
s_0_0_24_100 0
z_0_0_24_100 1
x_0_0_25_100 0
s_0_0_25_100 5.2560420210146985e-01
z_0_0_25_100 0
x_0_0_26_100 0
s_0_0_26_100 0
z_0_0_26_100 1
x_0_0_27_100 0
s_0_0_27_100 1.0317808824304212e-01
z_0_0_27_100 0
x_0_0_28_100 0
s_0_0_28_100 0
z_0_0_28_100 1
x_0_0_29_100 0
s_0_0_29_100 0
z_0_0_29_100 1
x_0_0_30_100 0
s_0_0_30_100 5.2348474661341626e-02
z_0_0_30_100 0
x_0_0_31_100 0
s_0_0_31_100 8.7116572757545119e-01
z_0_0_31_100 0
x_0_1_0_100 0
s_0_1_0_100 3.9818713565677366e-01
z_0_1_0_100 0
x_0_1_1_100 0
s_0_1_1_100 -1.8484259262097069e-13
z_0_1_1_100 1
x_0_1_2_100 0
s_0_1_2_100 4.7305793066828838e-01
z_0_1_2_100 0
x_0_1_3_100 0
s_0_1_3_100 3.4643649705693530e-01
z_0_1_3_100 0
x_0_1_4_100 0
s_0_1_4_100 -1.5680859388744750e-13
z_0_1_4_100 1
x_0_1_5_100 0
s_0_1_5_100 4.6797038614761566e-01
z_0_1_5_100 0
x_0_1_6_100 0
s_0_1_6_100 2.5628804634081348e-13
z_0_1_6_100 1
x_0_1_7_100 0
s_0_1_7_100 1.9440005161186491e-13
z_0_1_7_100 1
x_0_1_8_100 0
s_0_1_8_100 -2.2015722578316854e-13
z_0_1_8_100 1
x_0_1_9_100 0
s_0_1_9_100 1.2355394485297211e-13
z_0_1_9_100 1
x_0_1_10_100 0
s_0_1_10_100 -1.3798337472614719e-13
z_0_1_10_100 1
x_0_1_11_100 0
s_0_1_11_100 1.8463848034548672e-01
z_0_1_11_100 0
x_0_1_12_100 0
s_0_1_12_100 2.5959789873297723e-13
z_0_1_12_100 1
x_0_1_13_100 0
s_0_1_13_100 7.4190751649484826e-02
z_0_1_13_100 0
x_0_1_14_100 0
s_0_1_14_100 3.5366442799577258e-01
z_0_1_14_100 0
x_0_1_15_100 0
s_0_1_15_100 5.0099221803263838e-01
z_0_1_15_100 0
x_0_1_16_100 0
s_0_1_16_100 1.3533618670180658e-13
z_0_1_16_100 1
x_0_1_17_100 0
s_0_1_17_100 0
z_0_1_17_100 1
x_0_1_18_100 0
s_0_1_18_100 0.0971351961295459
z_0_1_18_100 0
x_0_1_19_100 0
s_0_1_19_100 -1.5808535036576643e-13
z_0_1_19_100 1
x_0_1_20_100 0
s_0_1_20_100 2.9490981460557442e-01
z_0_1_20_100 0
x_0_1_21_100 0
s_0_1_21_100 6.1160003145537933e-02
z_0_1_21_100 0
x_0_1_22_100 0
s_0_1_22_100 1.7733731150215704e-13
z_0_1_22_100 1
x_0_1_23_100 0
s_0_1_23_100 6.7804014030868132e-01
z_0_1_23_100 0
x_0_1_24_100 0
s_0_1_24_100 0
z_0_1_24_100 1
x_0_1_25_100 0
s_0_1_25_100 2.8761680051694116e-01
z_0_1_25_100 0
x_0_1_26_100 0
s_0_1_26_100 1.3325451853063441e-13
z_0_1_26_100 1
x_0_1_27_100 0
s_0_1_27_100 0.208033432563196
z_0_1_27_100 0
x_0_1_28_100 0
s_0_1_28_100 0
z_0_1_28_100 1
x_0_1_29_100 0
s_0_1_29_100 2.8602557629348774e-01
z_0_1_29_100 0
x_0_1_30_100 0
s_0_1_30_100 2.3148748278621081e-01
z_0_1_30_100 0
x_0_1_31_100 0
s_0_1_31_100 8.2420462866647348e-01
z_0_1_31_100 0
x_0_2_0_100 0
s_0_2_0_100 4.5494459569454765e-01
z_0_2_0_100 0
x_0_2_1_100 0
s_0_2_1_100 5.9533618390561205e-02
z_0_2_1_100 0
x_0_2_2_100 0
s_0_2_2_100 5.1308980087439671e-01
z_0_2_2_100 0
x_0_2_3_100 0
s_0_2_3_100 3.6958766503570295e-01
z_0_2_3_100 0
x_0_2_4_100 0
s_0_2_4_100 1.2520540160210203e-13
z_0_2_4_100 1
x_0_2_5_100 0
s_0_2_5_100 5.0218087931474464e-01
z_0_2_5_100 0
x_0_2_6_100 0
s_0_2_6_100 0
z_0_2_6_100 1
x_0_2_7_100 0
s_0_2_7_100 -1.6411871861521377e-13
z_0_2_7_100 1
x_0_2_8_100 0
s_0_2_8_100 -1.7020412856894040e-13
z_0_2_8_100 1
x_0_2_9_100 0
s_0_2_9_100 0
z_0_2_9_100 1
x_0_2_10_100 0
s_0_2_10_100 -1.0279624373943363e-13
z_0_2_10_100 1
x_0_2_11_100 0
s_0_2_11_100 1.1200467745462486e-02
z_0_2_11_100 0
x_0_2_12_100 0
s_0_2_12_100 0
z_0_2_12_100 1
x_0_2_13_100 0
s_0_2_13_100 4.6272554434836084e-02
z_0_2_13_100 0
x_0_2_14_100 0
s_0_2_14_100 4.0727139512698424e-01
z_0_2_14_100 0
x_0_2_15_100 0
s_0_2_15_100 6.0923946276307628e-01
z_0_2_15_100 0
x_0_2_16_100 0
s_0_2_16_100 1.0293849106446373e-13
z_0_2_16_100 1
x_0_2_17_100 0
s_0_2_17_100 1.1957673976818681e-01
z_0_2_17_100 0
x_0_2_18_100 0
s_0_2_18_100 5.9682478507351935e-03
z_0_2_18_100 0
x_0_2_19_100 0
s_0_2_19_100 6.3416037087640514e-02
z_0_2_19_100 0
x_0_2_20_100 0
s_0_2_20_100 3.3953408012166925e-02
z_0_2_20_100 0
x_0_2_21_100 0
s_0_2_21_100 0
z_0_2_21_100 1
x_0_2_22_100 0
s_0_2_22_100 1.3072182225570828e-13
z_0_2_22_100 1
x_0_2_23_100 0
s_0_2_23_100 5.6411444333692906e-01
z_0_2_23_100 0
x_0_2_24_100 0
s_0_2_24_100 0
z_0_2_24_100 1
x_0_2_25_100 0
s_0_2_25_100 4.1893170277278030e-01
z_0_2_25_100 0
x_0_2_26_100 0
s_0_2_26_100 1.0834388941560746e-13
z_0_2_26_100 1
x_0_2_27_100 0
s_0_2_27_100 5.4866743584475929e-02
z_0_2_27_100 0
x_0_2_28_100 0
s_0_2_28_100 0
z_0_2_28_100 1
x_0_2_29_100 0
s_0_2_29_100 1.5507148702939566e-01
z_0_2_29_100 0
x_0_2_30_100 0
s_0_2_30_100 1.6702395677566645e-01
z_0_2_30_100 0
x_0_2_31_100 0
s_0_2_31_100 7.1160383522511228e-01
z_0_2_31_100 0
x_0_3_0_100 0
s_0_3_0_100 4.3212569753331770e-01
z_0_3_0_100 0
x_0_3_1_100 0
s_0_3_1_100 -1.4663097125389157e-13
z_0_3_1_100 1
x_0_3_2_100 0
s_0_3_2_100 2.3591795563698967e-01
z_0_3_2_100 0
x_0_3_3_100 0
s_0_3_3_100 1.7368047063550252e-01
z_0_3_3_100 0
x_0_3_4_100 0
s_0_3_4_100 8.1801294193563773e-03
z_0_3_4_100 0
x_0_3_5_100 0
s_0_3_5_100 2.5396210451922396e-01
z_0_3_5_100 0
x_0_3_6_100 0
s_0_3_6_100 0
z_0_3_6_100 1
x_0_3_7_100 0
s_0_3_7_100 0
z_0_3_7_100 1
x_0_3_8_100 0
s_0_3_8_100 -1.5955292642644281e-13
z_0_3_8_100 1
x_0_3_9_100 0
s_0_3_9_100 0
z_0_3_9_100 1
x_0_3_10_100 0
s_0_3_10_100 7.3458675877197913e-02
z_0_3_10_100 0
x_0_3_11_100 0
s_0_3_11_100 1.0758399963377931e-01
z_0_3_11_100 0
x_0_3_12_100 0
s_0_3_12_100 0
z_0_3_12_100 1
x_0_3_13_100 0
s_0_3_13_100 8.4947683848445921e-02
z_0_3_13_100 0
x_0_3_14_100 0
s_0_3_14_100 4.5669112602872663e-01
z_0_3_14_100 0
x_0_3_15_100 0
s_0_3_15_100 0.387005780513125
z_0_3_15_100 0
x_0_3_16_100 0
s_0_3_16_100 4.8751880724619973e-04
z_0_3_16_100 0
x_0_3_17_100 0
s_0_3_17_100 1.6494444698977873e-13
z_0_3_17_100 1
x_0_3_18_100 0
s_0_3_18_100 5.5479144056637217e-02
z_0_3_18_100 0
x_0_3_19_100 0
s_0_3_19_100 1.1236012013010949e-01
z_0_3_19_100 0
x_0_3_20_100 0
s_0_3_20_100 2.0943616291816730e-01
z_0_3_20_100 0
x_0_3_21_100 0
s_0_3_21_100 8.6336786548278269e-02
z_0_3_21_100 0
x_0_3_22_100 0
s_0_3_22_100 1.40915057400548e-13
z_0_3_22_100 1
x_0_3_23_100 0
s_0_3_23_100 6.1676606380694143e-01
z_0_3_23_100 0
x_0_3_24_100 0
s_0_3_24_100 0
z_0_3_24_100 1
x_0_3_25_100 0
s_0_3_25_100 2.8063182781143287e-01
z_0_3_25_100 0
x_0_3_26_100 0
s_0_3_26_100 1.1540768340978502e-13
z_0_3_26_100 1
x_0_3_27_100 0
s_0_3_27_100 2.8357993873456755e-01
z_0_3_27_100 0
x_0_3_28_100 0
s_0_3_28_100 0
z_0_3_28_100 1
x_0_3_29_100 0
s_0_3_29_100 1.3527960826951463e-01
z_0_3_29_100 0
x_0_3_30_100 0
s_0_3_30_100 4.7381912668536037e-02
z_0_3_30_100 0
x_0_3_31_100 0
s_0_3_31_100 6.4232406516872087e-01
z_0_3_31_100 0
h[0] 0
h[1] 2.9690472409079760e-01
h[2] 0
h[3] 0
h[4] 5.8801937157587236e-01
h[5] 0
h[6] 3.1497365733035837e-01
h[7] 4.4576997185770795e-01
h[8] 1.2863952890035302e+00
h[9] 6.5233737230365840e-01
h[10] 9.3696621634417276e-02
h[11] 0
h[12] 4.2858404815211415e+00
h[13] 0
h[14] 0
h[15] 0
h[16] 1.5768378352157986e-01
h[17] 5.5306766430560284e-01
h[18] 0
h[19] 7.9002397134724234e-02
h[20] 0
h[21] 2.3847309499936564e-01
h[22] 3.7984635215336782e-01
h[23] 0
h[24] 1.8785463240925966e+00
h[25] 0
h[26] 6.2909474968981449e-01
h[27] 0
h[28] 2.5629587555301434e+00
h[29] 5.2346179882461819e-02
h[30] 0
h[31] 0
y 1.3965897090178729e+00
x_1_0_0 9.7134815304304323e-01
s_1_0_0 -8.1656903461180264e-13
z_1_0_0 1
x_1_1_0 0
s_1_1_0 1.1737059480342311e+00
z_1_1_0 0
x_1_2_0 1.7363266424755610e+00
s_1_2_0 -1.0162981567418683e-12
z_1_2_0 1
x_1_3_0 0
s_1_3_0 2.1269690887986541e+00
z_1_3_0 0
x_1_4_0 0
s_1_4_0 5.2360349798559913e-01
z_1_4_0 0
x_1_5_0 0
s_1_5_0 3.5039313088957386e-01
z_1_5_0 0
x_1_6_0 0
s_1_6_0 1.2700311174610788e+00
z_1_6_0 0
x_1_7_0 0
s_1_7_0 3.8642321050820605e-02
z_1_7_0 0
x_1_8_0 2.1748733462639138e+00
s_1_8_0 -7.5583983516480657e-13
z_1_8_0 1
x_1_9_0 7.7791880095940091e-01
s_1_9_0 0
z_1_9_0 1
x_1_10_0 1.3175473905702386e+00
s_1_10_0 -1.0837997166390778e-12
z_1_10_0 1
x_1_11_0 0
s_1_11_0 7.1746571399796633e-01
z_1_11_0 0
x_1_12_0 0
s_1_12_0 2.2669187913079239e-01
z_1_12_0 0
x_1_13_0 2.3530453330536245e+00
s_1_13_0 0
z_1_13_0 1
x_1_14_0 0
s_1_14_0 1.3285915092904979e-01
z_1_14_0 0
x_1_15_0 0
s_1_15_0 4.8470570690205073e-01
z_1_15_0 0
